FILENAME:   /home/mcs001/s132664/testsets/IP/miplib2017/fastxgemm-n2r7s4t1.mps.gz
SETTINGS:   settings_isopr_minimalindexbranching_avoidsubtreenodes
TIMELIMIT:  7200
OUTPUTNAME: final_miplib_symretope_if_extended_generating_set_cpx_v802__settings_isopr_minimalindexbranching_avoidsubtreenodes__2__
BINNAME:    bin/symmetries.linux.x86_64.gnu.opt.cpx
BASENAME:   fastxgemm-n2r7s4t1.mps.gz
SEED:       2
@01 /home/mcs001/s132664/testsets/IP/miplib2017/fastxgemm-n2r7s4t1.mps.gz ===========
@02 fastxgemm-n2r7s4t1.mps.gz
@03 1686566773
SCIP version 8.0.2 [precision: 8 byte] [memory: block] [mode: optimized] [LP solver: CPLEX 20.1.0.0] [GitHash: 5f0473c]
Copyright (C) 2002-2022 Konrad-Zuse-Zentrum fuer Informationstechnik Berlin (ZIB)

Symmetry handling routines - (c) Marc Pfetsch, Thomas Rehn, Christopher Hojny.
[GitHash: a1587cb]


Turned off presolver <gateextraction>.
reading parameter file <../settings/settings_isopr_minimalindexbranching_avoidsubtreenodes.set> ...

Changed settings:
limits/time = 7200
limits/restarts = 0
randomization/randomseedshift = 2
constraints/orbitope/sepafreq = -1
constraints/orbitope/propfreq = 1
presolving/gateextraction/maxrounds = 0
propagating/isoprune/avoidsubtreenodes = TRUE
useisoprune = TRUE
usebranchfirst = TRUE


solving problem ...

original problem has 904 variables (56 bin, 0 int, 0 impl, 848 cont) and 6972 constraints
presolving:
(round 1, exhaustive) 0 del vars, 1792 del conss, 0 add conss, 0 chg bounds, 0 chg sides, 0 chg coeffs, 0 upgd conss, 0 impls, 28 clqs
(round 2, exhaustive) 0 del vars, 1792 del conss, 0 add conss, 0 chg bounds, 0 chg sides, 0 chg coeffs, 2974 upgd conss, 0 impls, 28 clqs
(round 3, exhaustive) 25 del vars, 1792 del conss, 0 add conss, 0 chg bounds, 0 chg sides, 0 chg coeffs, 2974 upgd conss, 368 impls, 191 clqs
(round 4, fast)       25 del vars, 1818 del conss, 0 add conss, 0 chg bounds, 0 chg sides, 0 chg coeffs, 2974 upgd conss, 368 impls, 191 clqs
(round 5, medium)     25 del vars, 1938 del conss, 0 add conss, 0 chg bounds, 0 chg sides, 0 chg coeffs, 2974 upgd conss, 368 impls, 191 clqs
(round 6, exhaustive) 50 del vars, 1938 del conss, 0 add conss, 0 chg bounds, 0 chg sides, 0 chg coeffs, 2974 upgd conss, 368 impls, 110 clqs
(round 7, fast)       50 del vars, 1974 del conss, 0 add conss, 0 chg bounds, 0 chg sides, 0 chg coeffs, 2974 upgd conss, 368 impls, 110 clqs
(round 8, medium)     50 del vars, 2150 del conss, 0 add conss, 0 chg bounds, 0 chg sides, 0 chg coeffs, 2974 upgd conss, 368 impls, 110 clqs
   (0.1s) probing cycle finished: starting next cycle
(round 9, exhaustive) 56 del vars, 2150 del conss, 0 add conss, 0 chg bounds, 0 chg sides, 0 chg coeffs, 2974 upgd conss, 536 impls, 90 clqs
(round 10, fast)       56 del vars, 2166 del conss, 0 add conss, 0 chg bounds, 1 chg sides, 28 chg coeffs, 2974 upgd conss, 536 impls, 90 clqs
(round 11, medium)     56 del vars, 2222 del conss, 0 add conss, 0 chg bounds, 1 chg sides, 28 chg coeffs, 2974 upgd conss, 536 impls, 90 clqs
   (0.1s) probing cycle finished: starting next cycle
   (0.1s) probing: 51/84 (60.7%) - 0 fixings, 56 aggregations, 10638 implications, 0 bound changes
   (0.1s) probing aborted: 50/50 successive totally useless probings
Required symmetry:			(1 bin, 0 int, 0 cont); (fixed: 0 bin, 1 int, 0 cont)
Time for symmetry detection:		0.04 	(matrix graph, 8910 nodes, 43088 edges)
Number of generators:			7 	(max: 1500)
Order of symmetry group:		864
Log10 of symmetry group order:		2.9
Number of vars moved by some symmetry:	848
Total time for symmetry detection:	0.04

Turned off presolver <domcol>.
Turned off presolver <components>.

presolving (12 rounds: 12 fast, 9 medium, 6 exhaustive):
 56 deleted vars, 2222 deleted constraints, 0 added constraints, 0 tightened bounds, 0 added holes, 1 changed sides, 28 changed coefficients
 536 implications, 90 cliques
presolved problem has 848 variables (56 bin, 0 int, 112 impl, 680 cont) and 4751 constraints
   2504 constraints of type <varbound>
      1 constraints of type <knapsack>
     28 constraints of type <setppc>
   2206 constraints of type <linear>
     11 constraints of type <logicor>
      1 constraints of type <symmetries>
Presolving Time: 0.19

 time | node  | left  |LP iter|LP it/n|mem/heur|mdpt |frac |vars |cons |cols |rows |cuts |confs|strbr|  dualbound   | primalbound  |  gap   
p 0.2s|     1 |     0 |     0 |     - |shiftand|   0 |   - | 848 |4752 | 848 |4750 |   0 |   0 |   0 | 0.000000e+00 | 3.030000e+03 |    Inf 
  0.3s|     1 |     0 |    36 |     - |    24M |   0 |  18 | 848 |4752 | 848 |4750 |   0 |   0 |   0 | 2.700000e+01 | 3.030000e+03 |  Large 
  0.7s|     1 |     2 |  1465 |     - |    25M |   0 |  18 | 848 |4752 | 848 |4750 |   0 |   0 |   0 | 2.700000e+01 | 3.030000e+03 |  Large 
d 1.2s|    21 |    18 |  6454 | 320.9 |fracdivi|  11 |   - | 848 |4764 | 848 |4750 |   0 |  12 |   0 | 2.700000e+01 | 1.642000e+03 |5981.48%
d 1.5s|    23 |    20 |  9173 | 415.3 |distribu|  11 |   - | 848 |4764 | 848 |4750 |   0 |  12 |   0 | 2.700000e+01 | 1.478000e+03 |5374.07%
  5.4s|   100 |    91 | 39494 | 398.6 |    27M |  15 |   9 | 848 |4839 | 848 |4750 |   0 |  90 |   0 | 2.700000e+01 | 1.478000e+03 |5374.07%
  9.1s|   200 |   179 | 70404 | 353.6 |    29M |  21 |   9 | 848 |4902 | 848 |4750 |   0 | 153 |   0 | 2.700000e+01 | 1.478000e+03 |5374.07%
o12.0s|   225 |   200 | 76672 | 342.1 |feaspump|  21 |   0 | 848 |4905 | 848 |4750 |   0 | 167 |   0 | 2.700000e+01 | 1.254000e+03 |4544.44%
d12.6s|   248 |   219 | 80998 | 327.8 |fracdivi|  22 |   - | 848 |4906 | 848 |4750 |   0 | 169 |   0 | 2.700000e+01 | 1.133000e+03 |4096.30%
 14.2s|   300 |   263 | 93822 | 313.7 |    30M |  22 |  14 | 848 |4926 | 848 |4750 |   0 | 189 |   0 | 2.700000e+01 | 1.133000e+03 |4096.30%
 16.9s|   400 |   329 |114121 | 285.9 |    31M |  23 |  10 | 848 |4946 | 848 |4750 |   0 | 209 |   0 | 2.700000e+01 | 1.133000e+03 |4096.30%
 20.1s|   500 |   406 |138797 | 278.1 |    34M |  23 |   2 | 848 |4967 | 848 |4750 |   0 | 232 |   0 | 2.700000e+01 | 1.133000e+03 |4096.30%
 22.3s|   600 |   476 |156273 | 260.8 |    35M |  24 |   4 | 848 |4999 | 848 |4750 |   0 | 265 |   0 | 2.700000e+01 | 1.133000e+03 |4096.30%
 25.4s|   700 |   556 |180333 | 257.9 |    37M |  24 |  12 | 848 |5026 | 848 |4750 |   0 | 296 |   0 | 2.700000e+01 | 1.133000e+03 |4096.30%
 28.1s|   800 |   621 |200524 | 250.9 |    37M |  24 |   - | 848 |5047 | 848 |4750 |   0 | 317 |   0 | 2.700000e+01 | 1.133000e+03 |4096.30%
 time | node  | left  |LP iter|LP it/n|mem/heur|mdpt |frac |vars |cons |cols |rows |cuts |confs|strbr|  dualbound   | primalbound  |  gap   
d30.1s|   870 |   642 |216467 | 249.1 |pscostdi|  24 |   - | 848 |5051 | 848 |4750 |   0 | 356 |   0 | 2.700000e+01 | 8.480000e+02 |3040.74%
 30.6s|   900 |   660 |220338 | 245.1 |    39M |  24 |   - | 848 |5056 | 848 |4750 |   0 | 361 |   0 | 2.700000e+01 | 8.480000e+02 |3040.74%
d32.4s|   968 |   523 |234796 | 242.8 |fracdivi|  25 |   - | 848 |5078 | 848 |4750 |   0 | 390 |   0 | 2.700000e+01 | 5.330000e+02 |1874.07%
 33.8s|  1000 |   545 |245258 | 245.5 |    39M |  25 |  16 | 848 |5102 | 848 |4750 |   0 | 414 |   0 | 2.700000e+01 | 5.330000e+02 |1874.07%
 36.2s|  1100 |   595 |263952 | 240.1 |    39M |  25 |  11 | 848 |5115 | 848 |4750 |   0 | 427 |   0 | 2.700000e+01 | 5.330000e+02 |1874.07%
 40.2s|  1200 |   641 |283354 | 236.3 |    39M |  25 |  10 | 848 |5162 | 848 |4750 |   0 | 475 |   0 | 2.700000e+01 | 5.330000e+02 |1874.07%
 43.9s|  1300 |   688 |302725 | 233.0 |    40M |  25 |  17 | 848 |5188 | 848 |4750 |   0 | 501 |   0 | 2.700000e+01 | 5.330000e+02 |1874.07%
L46.2s|  1393 |   517 |314824 | 226.1 |    rins|  25 |   - | 848 |5140 | 848 |4750 |   0 | 523 |   0 | 2.700000e+01 | 3.390000e+02 |1155.56%
 46.5s|  1400 |   518 |316414 | 226.1 |    40M |  25 |  19 | 848 |5142 | 848 |4750 |   0 | 525 |   0 | 2.700000e+01 | 3.390000e+02 |1155.56%
 48.6s|  1500 |   549 |333069 | 222.2 |    40M |  25 |   6 | 848 |5166 | 848 |4750 |   0 | 551 |   0 | 2.700000e+01 | 3.390000e+02 |1155.56%
 50.8s|  1600 |   603 |350548 | 219.2 |    41M |  25 |  15 | 848 |5205 | 848 |4750 |   0 | 590 |   0 | 2.700000e+01 | 3.390000e+02 |1155.56%
L51.2s|  1610 |   593 |352115 | 218.8 |    rins|  25 |  12 | 848 |5205 | 848 |4750 |   0 | 590 |   0 | 2.700000e+01 | 3.270000e+02 |1111.11%
 53.2s|  1700 |   630 |368186 | 216.7 |    41M |  25 |  18 | 848 |5226 | 848 |4750 |   0 | 612 |   0 | 2.700000e+01 | 3.270000e+02 |1111.11%
 55.0s|  1800 |   649 |378893 | 210.6 |    41M |  26 |   - | 848 |5253 | 848 |4750 |   0 | 640 |   0 | 2.700000e+01 | 3.270000e+02 |1111.11%
 57.8s|  1900 |   683 |394991 | 208.0 |    41M |  28 |   - | 848 |5279 | 848 |4750 |   0 | 666 |   0 | 2.700000e+01 | 3.270000e+02 |1111.11%
 time | node  | left  |LP iter|LP it/n|mem/heur|mdpt |frac |vars |cons |cols |rows |cuts |confs|strbr|  dualbound   | primalbound  |  gap   
 59.6s|  2000 |   705 |406773 | 203.5 |    42M |  30 |  22 | 848 |5296 | 848 |4750 |   0 | 683 |   0 | 2.700000e+01 | 3.270000e+02 |1111.11%
 61.2s|  2100 |   719 |417115 | 198.7 |    42M |  30 |   - | 848 |5310 | 848 |4750 |   0 | 698 |   0 | 2.700000e+01 | 3.270000e+02 |1111.11%
 63.4s|  2200 |   757 |431536 | 196.2 |    42M |  30 |   9 | 848 |5332 | 848 |4750 |   0 | 720 |   0 | 2.700000e+01 | 3.270000e+02 |1111.11%
 64.7s|  2300 |   761 |439547 | 191.2 |    42M |  30 |   - | 848 |5342 | 848 |4750 |   0 | 732 |   0 | 2.700000e+01 | 3.270000e+02 |1111.11%
 66.4s|  2400 |   784 |448874 | 187.1 |    42M |  30 |  19 | 848 |5398 | 848 |4750 |   0 | 789 |   0 | 2.700000e+01 | 3.270000e+02 |1111.11%
 68.5s|  2500 |   829 |463517 | 185.5 |    45M |  30 |  10 | 848 |5446 | 848 |4750 |   0 | 839 |   0 | 2.700000e+01 | 3.270000e+02 |1111.11%
 70.0s|  2600 |   873 |474203 | 182.4 |    45M |  30 |  11 | 848 |5479 | 848 |4750 |   0 | 872 |   0 | 2.700000e+01 | 3.270000e+02 |1111.11%
 71.9s|  2700 |   885 |487382 | 180.6 |    45M |  30 |   - | 848 |5502 |   0 |   0 |   0 | 895 |   0 | 2.700000e+01 | 3.270000e+02 |1111.11%
 73.5s|  2800 |   909 |497760 | 177.8 |    45M |  30 |   - | 848 |5514 | 848 |4750 |   0 | 908 |   0 | 2.700000e+01 | 3.270000e+02 |1111.11%
 75.3s|  2900 |   927 |509253 | 175.7 |    45M |  30 |  11 | 848 |5539 | 848 |4750 |   0 | 934 |   0 | 2.700000e+01 | 3.270000e+02 |1111.11%
 76.4s|  3000 |   934 |515610 | 171.9 |    45M |  30 |   9 | 848 |5554 | 848 |4750 |   0 | 950 |   0 | 2.700000e+01 | 3.270000e+02 |1111.11%
 77.8s|  3100 |   952 |525131 | 169.4 |    45M |  30 |  10 | 848 |5590 | 848 |4750 |   0 | 986 |   0 | 2.700000e+01 | 3.270000e+02 |1111.11%
 79.7s|  3200 |   996 |539349 | 168.6 |    45M |  30 |  14 | 848 |5610 | 848 |4750 |   0 |1008 |   0 | 2.700000e+01 | 3.270000e+02 |1111.11%
 81.0s|  3300 |  1014 |548170 | 166.2 |    45M |  30 |   - | 848 |5648 | 848 |4750 |   0 |1046 |   0 | 2.700000e+01 | 3.270000e+02 |1111.11%
 82.3s|  3400 |  1032 |555825 | 163.5 |    45M |  30 |  23 | 848 |5679 | 848 |4750 |   0 |1077 |   0 | 2.700000e+01 | 3.270000e+02 |1111.11%
 time | node  | left  |LP iter|LP it/n|mem/heur|mdpt |frac |vars |cons |cols |rows |cuts |confs|strbr|  dualbound   | primalbound  |  gap   
 83.9s|  3500 |  1096 |568484 | 162.5 |    46M |  30 |  11 | 848 |5691 | 848 |4750 |   0 |1090 |   0 | 2.700000e+01 | 3.270000e+02 |1111.11%
 85.2s|  3600 |  1115 |576462 | 160.2 |    46M |  30 |  13 | 848 |5704 | 848 |4750 |   0 |1103 |   0 | 2.700000e+01 | 3.270000e+02 |1111.11%
 86.4s|  3700 |  1135 |583972 | 157.9 |    46M |  30 |   - | 848 |5717 |   0 |   0 |   0 |1123 |   0 | 2.700000e+01 | 3.270000e+02 |1111.11%
 87.7s|  3800 |  1153 |593006 | 156.1 |    47M |  30 |  18 | 848 |5730 | 848 |4750 |   3 |1138 |   0 | 2.700000e+01 | 3.270000e+02 |1111.11%
 88.6s|  3900 |  1155 |597815 | 153.3 |    47M |  30 |  12 | 848 |5753 | 848 |4750 |   3 |1167 |   0 | 2.700000e+01 | 3.270000e+02 |1111.11%
 89.7s|  4000 |  1169 |603997 | 151.0 |    47M |  30 |  13 | 848 |5762 | 848 |4750 |   3 |1181 |   0 | 2.700000e+01 | 3.270000e+02 |1111.11%
 91.1s|  4100 |  1197 |611350 | 149.1 |    49M |  30 |  14 | 848 |5763 | 848 |4750 |   3 |1184 |   0 | 2.700000e+01 | 3.270000e+02 |1111.11%
 92.1s|  4200 |  1187 |616751 | 146.9 |    49M |  30 |   - | 848 |5775 |   0 |   0 |   3 |1199 |   0 | 2.700000e+01 | 3.270000e+02 |1111.11%
 93.0s|  4300 |  1190 |621254 | 144.5 |    49M |  30 |  10 | 848 |5782 | 848 |4750 |   3 |1206 |   0 | 2.700000e+01 | 3.270000e+02 |1111.11%
 93.8s|  4400 |  1206 |625910 | 142.3 |    49M |  30 |   - | 848 |5794 | 848 |4750 |   3 |1219 |   0 | 2.700000e+01 | 3.270000e+02 |1111.11%
 94.8s|  4500 |  1206 |631671 | 140.4 |    49M |  30 |  10 | 848 |5794 | 848 |4750 |   3 |1219 |   0 | 2.700000e+01 | 3.270000e+02 |1111.11%
 95.9s|  4600 |  1208 |638612 | 138.9 |    49M |  30 |   - | 848 |5798 | 848 |4750 |   3 |1226 |   0 | 2.700000e+01 | 3.270000e+02 |1111.11%
 96.9s|  4700 |  1200 |644045 | 137.1 |    49M |  30 |   - | 848 |5809 |   0 |   0 |   3 |1238 |   0 | 2.700000e+01 | 3.270000e+02 |1111.11%
 98.0s|  4800 |  1226 |650305 | 135.5 |    49M |  30 |  13 | 848 |5827 | 848 |4750 |   3 |1257 |   0 | 2.700000e+01 | 3.270000e+02 |1111.11%
 99.1s|  4900 |  1244 |657054 | 134.1 |    49M |  30 |  11 | 848 |5889 | 848 |4750 |   3 |1319 |   0 | 2.700000e+01 | 3.270000e+02 |1111.11%
 time | node  | left  |LP iter|LP it/n|mem/heur|mdpt |frac |vars |cons |cols |rows |cuts |confs|strbr|  dualbound   | primalbound  |  gap   
  101s|  5000 |  1264 |671153 | 134.3 |    49M |  30 |  14 | 848 |5903 | 848 |4750 |   3 |1333 |   0 | 2.700000e+01 | 3.270000e+02 |1111.11%
  103s|  5100 |  1287 |681367 | 133.6 |    49M |  30 |   - | 848 |5936 | 848 |4750 |   3 |1367 |   0 | 2.700000e+01 | 3.270000e+02 |1111.11%
  104s|  5200 |  1289 |686188 | 132.0 |    49M |  30 |  13 | 848 |5955 | 848 |4750 |   3 |1393 |   0 | 2.700000e+01 | 3.270000e+02 |1111.11%
  105s|  5300 |  1289 |693754 | 130.9 |    49M |  30 |  14 | 848 |5994 | 848 |4750 |   3 |1437 |   0 | 2.700000e+01 | 3.270000e+02 |1111.11%
  106s|  5400 |  1320 |703078 | 130.2 |    50M |  30 |   - | 848 |5996 | 848 |4750 |   3 |1442 |   0 | 2.700000e+01 | 3.270000e+02 |1111.11%
  108s|  5500 |  1348 |714361 | 129.9 |    50M |  30 |   7 | 848 |6002 | 848 |4750 |   3 |1448 |   0 | 2.700000e+01 | 3.270000e+02 |1111.11%
  109s|  5600 |  1360 |722695 | 129.1 |    50M |  30 |   9 | 848 |6004 | 848 |4750 |   3 |1450 |   0 | 2.700000e+01 | 3.270000e+02 |1111.11%
  110s|  5700 |  1368 |729516 | 128.0 |    50M |  30 |   9 | 848 |6021 | 848 |4750 |   3 |1468 |   0 | 2.700000e+01 | 3.270000e+02 |1111.11%
  112s|  5800 |  1402 |738981 | 127.4 |    51M |  30 |  11 | 848 |6026 | 848 |4750 |   3 |1475 |   0 | 2.700000e+01 | 3.270000e+02 |1111.11%
  113s|  5900 |  1410 |749564 | 127.1 |    51M |  30 |   7 | 848 |6034 | 848 |4750 |   3 |1484 |   0 | 2.700000e+01 | 3.270000e+02 |1111.11%
  115s|  6000 |  1418 |757226 | 126.2 |    51M |  30 |   - | 848 |6043 | 848 |4750 |   3 |1493 |   0 | 2.700000e+01 | 3.270000e+02 |1111.11%
  115s|  6100 |  1424 |760879 | 124.7 |    51M |  30 |  10 | 848 |6050 | 848 |4750 |   3 |1507 |   0 | 2.700000e+01 | 3.270000e+02 |1111.11%
  117s|  6200 |  1428 |769510 | 124.1 |    51M |  30 |   - | 848 |6056 | 848 |4750 |   3 |1517 |   0 | 2.700000e+01 | 3.270000e+02 |1111.11%
  118s|  6300 |  1431 |778624 | 123.6 |    51M |  30 |  15 | 848 |6076 | 848 |4750 |   3 |1539 |   0 | 2.700000e+01 | 3.270000e+02 |1111.11%
  120s|  6400 |  1429 |788120 | 123.2 |    52M |  30 |   9 | 848 |6094 | 848 |4750 |   3 |1566 |   0 | 2.700000e+01 | 3.270000e+02 |1111.11%
 time | node  | left  |LP iter|LP it/n|mem/heur|mdpt |frac |vars |cons |cols |rows |cuts |confs|strbr|  dualbound   | primalbound  |  gap   
  121s|  6500 |  1457 |797457 | 122.7 |    52M |  30 |  22 | 848 |6109 | 848 |4750 |   3 |1585 |   0 | 2.700000e+01 | 3.270000e+02 |1111.11%
  123s|  6600 |  1481 |808597 | 122.5 |    52M |  30 |   - | 848 |6125 | 848 |4750 |   3 |1603 |   0 | 2.700000e+01 | 3.270000e+02 |1111.11%
  124s|  6700 |  1489 |817626 | 122.0 |    52M |  30 |  11 | 848 |6130 | 848 |4750 |   3 |1612 |   0 | 2.700000e+01 | 3.270000e+02 |1111.11%
  126s|  6800 |  1509 |828550 | 121.9 |    52M |  30 |   4 | 848 |6148 | 848 |4750 |   3 |1630 |   0 | 2.700000e+01 | 3.270000e+02 |1111.11%
  127s|  6900 |  1553 |835684 | 121.1 |    52M |  32 |  12 | 848 |6180 | 848 |4750 |   3 |1665 |   0 | 2.700000e+01 | 3.270000e+02 |1111.11%
  129s|  7000 |  1553 |843289 | 120.5 |    52M |  32 |  16 | 848 |6223 | 848 |4750 |   3 |1716 |   0 | 2.700000e+01 | 3.270000e+02 |1111.11%
  130s|  7100 |  1553 |851632 | 120.0 |    52M |  32 |   - | 848 |6264 | 848 |4750 |   3 |1758 |   0 | 2.700000e+01 | 3.270000e+02 |1111.11%
  132s|  7200 |  1569 |860126 | 119.5 |    53M |  32 |   - | 848 |6284 | 848 |4750 |   3 |1784 |   0 | 2.700000e+01 | 3.270000e+02 |1111.11%
  133s|  7300 |  1587 |870422 | 119.2 |    53M |  32 |   - | 848 |6335 | 848 |4750 |   3 |1843 |   0 | 2.700000e+01 | 3.270000e+02 |1111.11%
  135s|  7400 |  1613 |884440 | 119.5 |    53M |  32 |  12 | 848 |6342 | 848 |4750 |   3 |1850 |   0 | 2.700000e+01 | 3.270000e+02 |1111.11%
  136s|  7500 |  1635 |890891 | 118.8 |    53M |  32 |  13 | 848 |6383 | 848 |4750 |   3 |1896 |   0 | 2.700000e+01 | 3.270000e+02 |1111.11%
  138s|  7600 |  1677 |898849 | 118.3 |    53M |  32 |   7 | 848 |6418 | 848 |4750 |   3 |1937 |   0 | 2.700000e+01 | 3.270000e+02 |1111.11%
  139s|  7700 |  1704 |907250 | 117.8 |    53M |  32 |   - | 848 |6436 | 848 |4750 |   3 |1958 |   0 | 2.700000e+01 | 3.270000e+02 |1111.11%
  140s|  7800 |  1696 |912974 | 117.1 |    53M |  32 |  12 | 848 |6455 | 848 |4750 |   3 |1978 |   0 | 2.700000e+01 | 3.270000e+02 |1111.11%
  141s|  7900 |  1658 |917847 | 116.2 |    53M |  32 |   - | 848 |6502 |   0 |   0 |   3 |2029 |   0 | 2.700176e+01 | 3.270000e+02 |1111.03%
 time | node  | left  |LP iter|LP it/n|mem/heur|mdpt |frac |vars |cons |cols |rows |cuts |confs|strbr|  dualbound   | primalbound  |  gap   
  143s|  8000 |  1688 |925831 | 115.7 |    53M |  36 |  12 | 848 |6544 | 848 |4750 |   3 |2076 |   0 | 2.700250e+01 | 3.270000e+02 |1111.00%
* 143s|  8009 |   595 |926131 | 115.6 |    LP  |  36 |   - | 848 |5342 | 848 |4750 |   3 |2079 |   0 | 2.700250e+01 | 4.200000e+01 |  55.54%
  144s|  8100 |   577 |931042 | 115.0 |    53M |  36 |   - | 848 |5369 |   0 |   0 |   3 |2116 |   0 | 2.700273e+01 | 4.200000e+01 |  55.54%
  145s|  8200 |   574 |936438 | 114.2 |    53M |  36 |   - | 848 |5391 |   0 |   0 |   3 |2143 |   0 | 2.700375e+01 | 4.200000e+01 |  55.53%
  146s|  8300 |   558 |942657 | 113.6 |    53M |  36 |  19 | 848 |5417 | 848 |4750 |   3 |2177 |   0 | 2.700429e+01 | 4.200000e+01 |  55.53%
  147s|  8400 |   559 |951860 | 113.3 |    53M |  36 |   8 | 848 |5434 | 848 |4750 |   3 |2201 |   0 | 2.700500e+01 | 4.200000e+01 |  55.53%
  149s|  8500 |   570 |963947 | 113.4 |    53M |  36 |   6 | 848 |5471 | 848 |4750 |   3 |2252 |   0 | 2.700500e+01 | 4.200000e+01 |  55.53%
  150s|  8600 |   576 |973524 | 113.2 |    53M |  36 |   - | 848 |5488 | 848 |4750 |   3 |2273 |   0 | 2.700500e+01 | 4.200000e+01 |  55.53%
  152s|  8700 |   562 |981554 | 112.8 |    53M |  36 |  10 | 848 |5514 | 848 |4750 |   3 |2311 |   0 | 2.700600e+01 | 4.200000e+01 |  55.52%
  153s|  8800 |   560 |988142 | 112.3 |    54M |  36 |  25 | 848 |5535 | 848 |4750 |   3 |2336 |   0 | 2.700600e+01 | 4.200000e+01 |  55.52%
  154s|  8900 |   557 |997348 | 112.1 |    54M |  36 |   - | 848 |5572 |   0 |   0 |   3 |2376 |   0 | 2.700600e+01 | 4.200000e+01 |  55.52%
  155s|  9000 |   547 |  1004k| 111.6 |    54M |  36 |  17 | 848 |5578 | 848 |4750 |   3 |2393 |   0 | 2.700600e+01 | 4.200000e+01 |  55.52%
  156s|  9100 |   515 |  1012k| 111.3 |    54M |  36 |   - | 848 |5588 |   0 |   0 |   3 |2418 |   0 | 2.700750e+01 | 4.200000e+01 |  55.51%
  157s|  9200 |   497 |  1018k| 110.8 |    54M |  36 |   - | 848 |5612 |   0 |   0 |   3 |2445 |   0 | 2.700750e+01 | 4.200000e+01 |  55.51%
  159s|  9300 |   487 |  1026k| 110.4 |    54M |  36 |   - | 848 |5639 |   0 |   0 |   3 |2482 |   0 | 2.700750e+01 | 4.200000e+01 |  55.51%
 time | node  | left  |LP iter|LP it/n|mem/heur|mdpt |frac |vars |cons |cols |rows |cuts |confs|strbr|  dualbound   | primalbound  |  gap   
  160s|  9400 |   469 |  1035k| 110.2 |    54M |  36 |   - | 848 |5657 |   0 |   0 |   3 |2504 |   0 | 2.701000e+01 | 4.200000e+01 |  55.50%
  161s|  9500 |   467 |  1044k| 110.0 |    54M |  36 |  28 | 848 |5663 | 848 |4750 |   3 |2517 |   0 | 2.701000e+01 | 4.200000e+01 |  55.50%
  163s|  9600 |   467 |  1053k| 109.7 |    54M |  36 |  23 | 848 |5678 | 848 |4750 |   3 |2535 |   0 | 2.701000e+01 | 4.200000e+01 |  55.50%
  164s|  9700 |   446 |  1061k| 109.4 |    55M |  36 |  10 | 848 |5683 | 848 |4750 |   6 |2555 |   0 | 2.701000e+01 | 4.200000e+01 |  55.50%
  165s|  9800 |   427 |  1070k| 109.2 |    55M |  36 |  22 | 848 |5688 | 848 |4750 |   8 |2569 |   0 | 2.701000e+01 | 4.200000e+01 |  55.50%
  167s|  9900 |   432 |  1079k| 109.1 |    55M |  36 |  14 | 848 |5695 | 848 |4750 |   8 |2578 |   0 | 2.701000e+01 | 4.200000e+01 |  55.50%
  168s| 10000 |   438 |  1087k| 108.8 |    55M |  36 |   - | 848 |5738 | 848 |4750 |   8 |2623 |   0 | 2.701000e+01 | 4.200000e+01 |  55.50%
  169s| 10100 |   411 |  1094k| 108.4 |    55M |  36 |   - | 848 |5749 |   0 |   0 |   8 |2639 |   0 | 2.701286e+01 | 4.200000e+01 |  55.48%
  170s| 10200 |   416 |  1102k| 108.1 |    55M |  36 |  17 | 848 |5762 | 848 |4750 |   8 |2659 |   0 | 2.701500e+01 | 4.200000e+01 |  55.47%
  172s| 10300 |   414 |  1112k| 108.0 |    55M |  36 |  21 | 848 |5782 | 848 |4750 |   8 |2687 |   0 | 2.701500e+01 | 4.200000e+01 |  55.47%
  173s| 10400 |   413 |  1124k| 108.1 |    56M |  36 |   - | 848 |5794 | 848 |4750 |   8 |2704 |   0 | 2.701714e+01 | 4.200000e+01 |  55.46%
  175s| 10500 |   409 |  1133k| 107.9 |    56M |  36 |   - | 848 |5815 |   0 |   0 |   8 |2728 |   0 | 2.701875e+01 | 4.200000e+01 |  55.45%
  176s| 10600 |   409 |  1141k| 107.7 |    56M |  36 |   - | 848 |5813 | 848 |4750 |   8 |2731 |   0 | 2.702000e+01 | 4.200000e+01 |  55.44%
  177s| 10700 |   397 |  1146k| 107.2 |    56M |  36 |  13 | 848 |5833 | 848 |4750 |   8 |2756 |   0 | 2.702000e+01 | 4.200000e+01 |  55.44%
  178s| 10800 |   399 |  1155k| 107.0 |    56M |  36 |   - | 848 |5827 |   0 |   0 |   8 |2762 |   0 | 2.702000e+01 | 4.200000e+01 |  55.44%
 time | node  | left  |LP iter|LP it/n|mem/heur|mdpt |frac |vars |cons |cols |rows |cuts |confs|strbr|  dualbound   | primalbound  |  gap   
  179s| 10900 |   382 |  1160k| 106.5 |    56M |  36 |   - | 848 |5781 |   0 |   0 |   8 |2772 |   0 | 2.702000e+01 | 4.200000e+01 |  55.44%
  181s| 11000 |   387 |  1173k| 106.7 |    56M |  36 |  12 | 848 |5791 | 848 |4750 |   8 |2789 |   0 | 2.702000e+01 | 4.200000e+01 |  55.44%
  182s| 11100 |   368 |  1180k| 106.3 |    56M |  36 |   - | 848 |5806 |   0 |   0 |   8 |2813 |   0 | 2.702000e+01 | 4.200000e+01 |  55.44%
  183s| 11200 |   362 |  1186k| 105.9 |    56M |  36 |   - | 848 |5849 | 848 |4750 |   8 |2861 |   0 | 2.702250e+01 | 4.200000e+01 |  55.43%
  185s| 11300 |   335 |  1194k| 105.7 |    56M |  36 |   - | 848 |5842 |   0 |   0 |   8 |2881 |   0 | 2.702368e+01 | 4.200000e+01 |  55.42%
  186s| 11400 |   321 |  1206k| 105.8 |    56M |  36 |   - | 848 |5822 |   0 |   0 |   8 |2891 |   0 | 2.702500e+01 | 4.200000e+01 |  55.41%
  188s| 11500 |   309 |  1216k| 105.7 |    56M |  36 |   - | 848 |5830 |   0 |   0 |   8 |2915 |   0 | 2.702500e+01 | 4.200000e+01 |  55.41%
  189s| 11600 |   292 |  1223k| 105.4 |    56M |  36 |   - | 848 |5832 |   0 |   0 |   8 |2938 |   0 | 2.703000e+01 | 4.200000e+01 |  55.38%
  190s| 11700 |   305 |  1234k| 105.5 |    56M |  36 |   6 | 848 |5808 | 848 |4750 |   8 |2953 |   0 | 2.703000e+01 | 4.200000e+01 |  55.38%
  192s| 11800 |   294 |  1242k| 105.3 |    56M |  36 |  14 | 848 |5802 | 848 |4750 |   8 |2962 |   0 | 2.703000e+01 | 4.200000e+01 |  55.38%
  193s| 11900 |   294 |  1253k| 105.4 |    56M |  36 |   - | 848 |5786 |   0 |   0 |   8 |2969 |   0 | 2.703000e+01 | 4.200000e+01 |  55.38%
  194s| 12000 |   270 |  1262k| 105.2 |    56M |  36 |   - | 848 |5764 |   0 |   0 |   8 |2978 |   0 | 2.703000e+01 | 4.200000e+01 |  55.38%
  196s| 12100 |   266 |  1271k| 105.1 |    56M |  36 |  16 | 848 |5756 | 848 |4750 |   8 |2997 |   0 | 2.703167e+01 | 4.200000e+01 |  55.37%
  197s| 12200 |   258 |  1282k| 105.1 |    56M |  36 |   - | 848 |5737 |   0 |   0 |   8 |2997 |   0 | 2.703187e+01 | 4.200000e+01 |  55.37%
  199s| 12300 |   243 |  1292k| 105.1 |    56M |  36 |  18 | 848 |5729 | 848 |4750 |   8 |3016 |   0 | 2.703273e+01 | 4.200000e+01 |  55.37%
 time | node  | left  |LP iter|LP it/n|mem/heur|mdpt |frac |vars |cons |cols |rows |cuts |confs|strbr|  dualbound   | primalbound  |  gap   
  200s| 12400 |   242 |  1301k| 104.9 |    56M |  36 |   - | 848 |5731 |   0 |   0 |   8 |3027 |   0 | 2.703273e+01 | 4.200000e+01 |  55.37%
  201s| 12500 |   241 |  1309k| 104.8 |    57M |  36 |  16 | 848 |5747 | 848 |4750 |   8 |3052 |   0 | 2.703375e+01 | 4.200000e+01 |  55.36%
  203s| 12600 |   245 |  1319k| 104.7 |    57M |  36 |   - | 848 |5746 | 848 |4750 |   8 |3058 |   0 | 2.704000e+01 | 4.200000e+01 |  55.33%
  204s| 12700 |   244 |  1329k| 104.7 |    57M |  36 |   6 | 848 |5747 | 848 |4750 |   8 |3065 |   0 | 2.704000e+01 | 4.200000e+01 |  55.33%
  205s| 12800 |   250 |  1336k| 104.4 |    57M |  36 |   - | 848 |5791 | 848 |4750 |   8 |3124 |   0 | 2.704000e+01 | 4.200000e+01 |  55.33%
  206s| 12900 |   252 |  1344k| 104.2 |    57M |  36 |   6 | 848 |5789 | 848 |4750 |   8 |3137 |   0 | 2.704000e+01 | 4.200000e+01 |  55.33%
  208s| 13000 |   250 |  1351k| 103.9 |    58M |  36 |   8 | 848 |5785 | 848 |4750 |   8 |3148 |   0 | 2.704000e+01 | 4.200000e+01 |  55.33%
  209s| 13100 |   240 |  1358k| 103.7 |    58M |  36 |   - | 848 |5787 |   0 |   0 |   8 |3153 |   0 | 2.704000e+01 | 4.200000e+01 |  55.33%
  210s| 13200 |   238 |  1367k| 103.6 |    58M |  36 |   - | 848 |5789 |   0 |   0 |   8 |3169 |   0 | 2.704000e+01 | 4.200000e+01 |  55.33%
  211s| 13300 |   226 |  1374k| 103.4 |    58M |  36 |   - | 848 |5804 |   0 |   0 |   8 |3188 |   0 | 2.704000e+01 | 4.200000e+01 |  55.33%
  212s| 13400 |   216 |  1382k| 103.2 |    58M |  36 |   - | 848 |5810 |   0 |   0 |   8 |3203 |   0 | 2.704000e+01 | 4.200000e+01 |  55.33%
  214s| 13500 |   191 |  1390k| 103.0 |    58M |  36 |   - | 848 |5819 | 848 |4750 |   8 |3232 |   0 | 2.704500e+01 | 4.200000e+01 |  55.30%
  215s| 13600 |   170 |  1398k| 102.8 |    58M |  36 |   - | 848 |5833 | 848 |4750 |   8 |3258 |   0 | 2.704500e+01 | 4.200000e+01 |  55.30%
  217s| 13700 |   168 |  1409k| 102.9 |    58M |  36 |  10 | 848 |5832 | 848 |4750 |   8 |3275 |   0 | 2.704500e+01 | 4.200000e+01 |  55.30%
  218s| 13800 |   132 |  1415k| 102.6 |    58M |  36 |   - | 848 |5855 |   0 |   0 |   8 |3303 |   0 | 2.705000e+01 | 4.200000e+01 |  55.27%
 time | node  | left  |LP iter|LP it/n|mem/heur|mdpt |frac |vars |cons |cols |rows |cuts |confs|strbr|  dualbound   | primalbound  |  gap   
  219s| 13900 |   131 |  1421k| 102.3 |    58M |  36 |   6 | 848 |5872 | 848 |4750 |   8 |3329 |   0 | 2.705000e+01 | 4.200000e+01 |  55.27%
  220s| 14000 |   133 |  1431k| 102.3 |    58M |  36 |   - | 848 |5885 |   0 |   0 |   8 |3352 |   0 | 2.705571e+01 | 4.200000e+01 |  55.24%
  222s| 14100 |   129 |  1439k| 102.1 |    58M |  36 |   - | 848 |5901 | 848 |4750 |   8 |3371 |   0 | 2.706000e+01 | 4.200000e+01 |  55.21%
  223s| 14200 |   103 |  1444k| 101.8 |    58M |  36 |   - | 848 |5908 |   0 |   0 |   8 |3388 |   0 | 2.706000e+01 | 4.200000e+01 |  55.21%
  224s| 14300 |    87 |  1452k| 101.6 |    58M |  36 |  22 | 848 |5894 | 848 |4750 |   8 |3394 |   0 | 2.706750e+01 | 4.200000e+01 |  55.17%
  225s| 14400 |    91 |  1462k| 101.6 |    58M |  36 |   - | 848 |5889 |   0 |   0 |   8 |3394 |   0 | 2.707000e+01 | 4.200000e+01 |  55.15%
  227s| 14500 |    68 |  1471k| 101.5 |    58M |  36 |   - | 848 |5908 |   0 |   0 |   8 |3425 |   0 | 2.707500e+01 | 4.200000e+01 |  55.12%
  228s| 14600 |    50 |  1480k| 101.4 |    58M |  36 |   - | 848 |5914 |   0 |   0 |   8 |3447 |   0 | 2.709000e+01 | 4.200000e+01 |  55.04%
  229s| 14700 |    55 |  1488k| 101.3 |    58M |  36 |   - | 848 |5924 |   0 |   0 |   8 |3463 |   0 | 2.711500e+01 | 4.200000e+01 |  54.90%
  231s| 14800 |    61 |  1497k| 101.2 |    58M |  36 |  16 | 848 |5934 | 848 |4750 |   8 |3477 |   0 | 2.712000e+01 | 4.200000e+01 |  54.87%
  232s| 14900 |    55 |  1502k| 100.9 |    58M |  36 |   - | 848 |5942 |   0 |   0 |   8 |3492 |   0 | 2.803000e+01 | 4.200000e+01 |  49.84%
  233s| 15000 |    39 |  1509k| 100.6 |    58M |  36 |   - | 848 |5971 | 848 |4750 |   8 |3521 |   0 | 2.808000e+01 | 4.200000e+01 |  49.57%
  234s| 15100 |    29 |  1515k| 100.4 |    58M |  36 |   - | 848 |6009 |   0 |   0 |   8 |3561 |   0 | 2.812000e+01 | 4.200000e+01 |  49.36%

SCIP Status        : problem is solved [optimal solution found]
Solving Time (sec) : 234.73
Solving Nodes      : 15198
Primal Bound       : +4.19999999999999e+01 (44 solutions)
Dual Bound         : +4.19999999999999e+01
Gap                : 0.00 %

Number of variables fixed to 0 by isomorphism pruning:	  2986
Number of variables fixed to 1 by isomorphism pruning:	    13
@04 1686567008
